95
162
175
160
148
86
58
30
42
45
40
28
14
3
19
33
60
125
154
174
187
145
144
135
120
134
151
153
139
117
102
85
54
66
67
82
99
131
119
107
18
6
8
11
12
13
10
9
2
1
15
29
31
32
59
70
83
89
90
91
77
65
51
20
21
24
25
36
48
47
62
165
180
191
189
188
186
118
69
68
94
84
37
38
49
34
101
113
127
116
115
130
161
173
159
112
114
100
87
97
96
105
123
126
128
166
179
190
185
171
172
170
53
41
55
79
80
110
111
124
138
137
152
192
193
181
164
163
133
132
146
158
184
183
157
177
178
176
167
182
169
168
141
143
129
98
81
43
27
16
4
17
5
7
23
75
74
73
72
22
46
71
57
56
44
61
156
155
142
104
103
140
149
147
195
194
150
136
122
121
108
106
92
93
109
88
64
78
76
63
52
39
26
35
50
95
